MINIMIZE
    obj: 7 x1 + 9 x2 + 11 x3 + 3 x4 + 2 x5 + 5 x6 + 3 x7 + 8 x8 + 9 x9 + 1 x10 + 11 x11 + 12 x12 
    + 20 x13 + 6 x14 + 8 x15 + 3 x16 + 9 x17 + 10 x18 +  x19 + 14 x20 + 11 x21 + x22
SUBJECT TO
     x1   + x2 +  x3  = 1
    -x1   + x4 +  x5  = 0
    -x2   + x6 +  x7  = 0
    -x3   + x8 +  x9  = 0
    -x4   - x6 + x10 + x11 + x12 = 0
    -x7   - x8 - x10 + x13 + x14 = 0
    -x11 + x15 + x16 + x17 = 0
    -x12 - x13 - x15 = 0
    -x9 -  x14 + x18 + x19 = 0
    -x5 -  x16 + x20 + x21 = 0
    -x17 - x18 - x20 + x22 = 0
    -x19 - x21 - x22 = -1
\ Bounds
END
